60
1007
4
17
79
29
40
0 1
0 2
0 4
0 5
0 6
0 7
0 8
0 9
0 10
0 11
0 12
0 14
0 20
0 22
0 23
0 24
0 25
0 28
0 29
0 30
0 35
0 37
0 38
0 41
0 42
0 43
0 44
0 46
0 48
0 49
0 50
0 52
0 55
0 57
0 58
0 59
1 3
1 4
1 6
1 7
1 9
1 11
1 12
1 14
1 16
1 17
1 18
1 20
1 21
1 22
1 23
1 24
1 25
1 26
1 27
1 28
1 29
1 30
1 32
1 33
1 34
1 35
1 38
1 39
1 40
1 42
1 46
1 48
1 51
1 52
1 53
1 54
1 56
1 57
1 59
2 3
2 4
2 5
2 6
2 7
2 8
2 9
2 10
2 12
2 14
2 15
2 17
2 19
2 20
2 21
2 23
2 25
2 28
2 32
2 35
2 37
2 38
2 40
2 42
2 43
2 44
2 45
2 46
2 47
2 48
2 50
2 53
2 54
2 57
2 58
3 4
3 6
3 7
3 8
3 9
3 10
3 11
3 14
3 15
3 16
3 18
3 19
3 20
3 22
3 23
3 25
3 26
3 27
3 32
3 33
3 34
3 36
3 38
3 39
3 41
3 43
3 44
3 45
3 48
3 50
3 53
3 58
3 59
4 5
4 6
4 8
4 9
4 10
4 11
4 16
4 17
4 25
4 27
4 29
4 30
4 34
4 35
4 36
4 39
4 41
4 42
4 43
4 44
4 45
4 46
4 47
4 48
4 51
4 53
4 54
4 56
4 57
4 58
4 59
5 6
5 7
5 8
5 11
5 13
5 15
5 17
5 26
5 27
5 29
5 31
5 32
5 35
5 36
5 37
5 38
5 39
5 43
5 45
5 46
5 47
5 48
5 49
5 50
5 52
5 54
5 55
5 56
6 7
6 9
6 14
6 15
6 16
6 17
6 20
6 23
6 24
6 25
6 27
6 31
6 33
6 38
6 39
6 40
6 41
6 43
6 44
6 45
6 48
6 49
6 50
6 51
6 54
6 55
6 56
6 57
6 58
6 59
7 10
7 11
7 13
7 14
7 16
7 17
7 18
7 19
7 20
7 23
7 24
7 25
7 29
7 30
7 32
7 35
7 37
7 38
7 39
7 40
7 42
7 44
7 45
7 46
7 47
7 49
7 50
7 52
7 55
7 56
7 59
8 9
8 10
8 11
8 12
8 15
8 19
8 20
8 21
8 24
8 29
8 30
8 31
8 32
8 34
8 35
8 36
8 38
8 40
8 42
8 44
8 46
8 47
8 48
8 49
8 52
8 53
8 54
8 55
8 56
9 11
9 15
9 16
9 18
9 19
9 22
9 23
9 25
9 27
9 28
9 29
9 32
9 33
9 35
9 36
9 37
9 39
9 40
9 41
9 42
9 43
9 44
9 45
9 46
9 48
9 51
9 52
9 53
9 55
9 56
9 58
10 12
10 13
10 19
10 20
10 21
10 22
10 23
10 24
10 29
10 30
10 34
10 35
10 37
10 39
10 42
10 43
10 45
10 47
10 49
10 50
10 52
10 53
10 54
10 57
10 58
11 12
11 13
11 16
11 17
11 23
11 25
11 27
11 28
11 29
11 31
11 33
11 36
11 38
11 40
11 41
11 42
11 44
11 45
11 47
11 49
11 50
11 52
11 53
11 54
11 56
11 58
12 13
12 14
12 19
12 21
12 22
12 24
12 25
12 26
12 29
12 30
12 31
12 33
12 34
12 36
12 38
12 39
12 44
12 45
12 46
12 47
12 49
12 54
12 56
12 57
12 58
13 14
13 15
13 18
13 20
13 21
13 23
13 27
13 29
13 30
13 32
13 36
13 38
13 39
13 41
13 42
13 44
13 48
13 49
13 50
13 52
13 53
13 54
13 56
14 17
14 21
14 24
14 25
14 26
14 27
14 29
14 32
14 33
14 34
14 35
14 36
14 37
14 39
14 40
14 41
14 42
14 44
14 45
14 47
14 52
14 53
14 55
15 19
15 20
15 22
15 24
15 26
15 27
15 28
15 29
15 31
15 32
15 34
15 36
15 37
15 39
15 40
15 41
15 42
15 43
15 46
15 51
15 52
15 56
15 57
15 58
15 59
16 17
16 18
16 20
16 21
16 22
16 23
16 24
16 27
16 30
16 31
16 33
16 34
16 36
16 37
16 38
16 39
16 42
16 44
16 45
16 46
16 47
16 48
16 51
16 54
16 56
16 58
16 59
17 18
17 19
17 21
17 22
17 23
17 24
17 25
17 26
17 28
17 29
17 30
17 31
17 32
17 33
17 34
17 36
17 37
17 41
17 43
17 46
17 48
17 49
17 51
17 52
17 56
17 57
17 58
17 59
18 20
18 23
18 25
18 26
18 27
18 28
18 29
18 31
18 32
18 33
18 34
18 35
18 36
18 38
18 40
18 41
18 42
18 44
18 46
18 47
18 48
18 50
18 51
18 52
18 53
18 55
18 57
18 59
19 21
19 25
19 27
19 29
19 30
19 32
19 35
19 36
19 38
19 41
19 44
19 45
19 46
19 47
19 49
19 50
19 54
19 55
19 58
19 59
20 24
20 25
20 26
20 27
20 28
20 29
20 30
20 31
20 33
20 34
20 35
20 36
20 38
20 40
20 41
20 43
20 44
20 45
20 46
20 48
20 51
20 52
20 53
20 54
20 55
20 56
20 57
20 58
21 24
21 27
21 30
21 31
21 32
21 33
21 34
21 37
21 41
21 42
21 44
21 45
21 49
21 50
21 52
21 55
21 57
21 58
22 25
22 26
22 27
22 28
22 29
22 30
22 33
22 34
22 35
22 36
22 37
22 38
22 39
22 40
22 41
22 42
22 43
22 45
22 46
22 47
22 49
22 53
22 55
22 59
23 25
23 26
23 27
23 30
23 31
23 32
23 33
23 35
23 38
23 39
23 41
23 43
23 44
23 47
23 48
23 49
23 50
23 51
24 28
24 29
24 30
24 32
24 34
24 35
24 36
24 37
24 40
24 43
24 44
24 45
24 46
24 47
24 50
24 53
24 55
24 56
24 57
24 59
25 27
25 29
25 32
25 34
25 35
25 36
25 38
25 39
25 40
25 41
25 44
25 47
25 50
25 54
25 56
25 57
25 58
25 59
26 28
26 31
26 32
26 33
26 34
26 35
26 36
26 37
26 43
26 47
26 48
26 50
26 52
26 53
26 55
26 57
26 58
26 59
27 28
27 30
27 32
27 37
27 38
27 39
27 40
27 41
27 42
27 43
27 45
27 46
27 47
27 48
27 49
27 52
27 53
27 54
27 55
27 56
27 57
27 59
28 32
28 33
28 34
28 38
28 39
28 40
28 41
28 42
28 44
28 46
28 49
28 51
28 58
28 59
29 31
29 32
29 34
29 35
29 38
29 39
29 41
29 42
29 43
29 45
29 46
29 47
29 52
29 53
29 55
29 58
29 59
30 31
30 34
30 36
30 38
30 39
30 40
30 42
30 43
30 45
30 46
30 47
30 48
30 52
30 54
30 57
31 32
31 40
31 44
31 45
31 47
31 48
31 49
31 51
31 52
31 53
31 54
31 55
31 56
31 58
31 59
32 33
32 36
32 38
32 39
32 42
32 44
32 45
32 46
32 47
32 48
32 49
32 50
32 51
32 53
33 34
33 35
33 36
33 39
33 42
33 43
33 45
33 48
33 50
33 51
33 53
33 55
33 56
34 40
34 41
34 42
34 44
34 46
34 47
34 48
34 49
34 51
34 53
34 54
34 55
35 36
35 37
35 39
35 40
35 42
35 47
35 48
35 49
35 50
35 51
35 52
35 55
35 56
35 59
36 38
36 44
36 45
36 47
36 49
36 53
36 55
36 57
37 43
37 45
37 51
37 52
37 53
37 54
37 56
37 57
37 58
37 59
38 44
38 46
38 47
38 48
38 49
38 50
38 51
38 52
38 53
38 54
38 56
38 57
38 58
38 59
39 40
39 42
39 43
39 45
39 46
39 47
39 48
39 49
39 53
39 54
39 55
39 56
39 58
39 59
40 42
40 45
40 46
40 48
40 50
40 53
40 57
40 58
40 59
41 43
41 44
41 45
41 50
41 54
41 55
41 57
41 58
42 44
42 45
42 46
42 48
42 50
42 51
42 52
42 58
42 59
43 44
43 45
43 46
43 47
43 49
43 50
43 51
43 52
43 53
43 56
43 57
43 59
44 47
44 49
44 50
44 51
44 52
44 53
44 57
44 58
44 59
45 46
45 50
45 51
45 52
45 54
45 56
45 57
46 47
46 48
46 49
46 50
46 51
46 53
46 56
46 57
46 58
46 59
47 49
47 53
47 54
47 55
47 57
48 50
48 51
48 52
48 54
48 55
48 56
48 57
49 51
49 52
49 54
49 55
49 56
50 51
50 52
50 53
50 54
50 55
50 56
50 57
51 52
51 53
51 54
51 56
51 58
52 53
52 54
52 55
52 57
53 57
53 58
54 55
54 58
54 59
55 56
55 57
55 59
56 57
56 58
57 59
23 2 57 7 49 34 10 24 5 4 41 26 58 45 13 22 20 12
9 51 39 28 25 19 32 35 3 42 6 46 54 31 21 36 44 27
11 59 47 30 38 52 29 1 8 50 53 37 17 33 43 14 55 18
40 48 15 56 16 0
